Maximize
obj:  + 47.1335 x0,0,670 + 48.455 x1,0,670
Subject To 
 + d0,0,670 <= 1 
 + d1,0,670 <= 1 
x0,0,670 - 230 d0,0,670 <= 0 
x1,0,670 - 180 d1,0,670 <= 0 
1.07 x0,0,670 - 27 d0,0,670 >= 0 
1.1 x1,0,670 - 135 d1,0,670 >= 0 
 + r670 + 3600 x0,0,670 + 3600 x1,0,670 = 288000 

Bounds 
r670 >= 0 
x0,0,670 >= 0 
x1,0,670 >= 0 

Binaries 
  d0,0,670   d1,0,670 
End 
